Welcome to the CBC MILP Solver 
Version: 2.10.12 
Build Date: Aug 20 2024 

command line - /opt/homebrew/bin/cbc computational_data/lp/ER_n20_p035_s4.lp seconds 10.0 solve solu computational_data/solutions/ER_n20_p035_s4.sol (default strategy 1)
seconds was changed from 1e+100 to 10
Continuous objective value is 4.29496 - 0.00 seconds
Cgl0003I 0 fixed, 0 tightened bounds, 86 strengthened rows, 0 substitutions
Cgl0003I 0 fixed, 0 tightened bounds, 68 strengthened rows, 0 substitutions
Cgl0003I 0 fixed, 0 tightened bounds, 27 strengthened rows, 0 substitutions
Cgl0003I 0 fixed, 0 tightened bounds, 18 strengthened rows, 0 substitutions
Cgl0003I 0 fixed, 0 tightened bounds, 3 strengthened rows, 0 substitutions
Cgl0004I processed model has 138 rows, 40 columns (40 integer (40 of which binary)) and 706 elements
Cutoff increment increased from 1e-05 to 0.9999
Cbc0038I Initial state - 26 integers unsatisfied sum - 4.29496
Cbc0038I Pass   1: suminf.    4.29641 (28) obj. 4.29641 iterations 2
Cbc0038I Pass   2: suminf.   10.00000 (20) obj. 10 iterations 51
Cbc0038I Pass   3: suminf.    5.00000 (15) obj. 8.33333 iterations 36
Cbc0038I Pass   4: suminf.    0.00000 (0) obj. 10 iterations 29
Cbc0038I Solution found of 10
Cbc0038I Before mini branch and bound, 10 integers at bound fixed and 0 continuous
Cbc0038I Full problem 138 rows 40 columns, reduced to 120 rows 30 columns
Cbc0038I Mini branch and bound improved solution from 10 to 6 (0.01 seconds)
Cbc0038I Round again with cutoff of 4.92959
Cbc0038I Pass   5: suminf.    4.29641 (28) obj. 4.29641 iterations 0
Cbc0038I Pass   6: suminf.    4.82888 (19) obj. 4.92959 iterations 30
Cbc0038I Pass   7: suminf.    3.78434 (20) obj. 4.92959 iterations 19
Cbc0038I Pass   8: suminf.    4.91720 (21) obj. 4.92959 iterations 32
Cbc0038I Pass   9: suminf.    3.53333 (14) obj. 4.8 iterations 26
Cbc0038I Pass  10: suminf.    3.25633 (13) obj. 4.92959 iterations 21
Cbc0038I Pass  11: suminf.    4.87560 (17) obj. 4.92959 iterations 26
Cbc0038I Pass  12: suminf.    4.07041 (19) obj. 4.92959 iterations 24
Cbc0038I Pass  13: suminf.    4.82821 (19) obj. 4.92959 iterations 23
Cbc0038I Pass  14: suminf.    3.99230 (21) obj. 4.92959 iterations 15
Cbc0038I Pass  15: suminf.    4.35680 (13) obj. 4.92959 iterations 29
Cbc0038I Pass  16: suminf.    3.72575 (21) obj. 4.92959 iterations 27
Cbc0038I Pass  17: suminf.    4.88733 (16) obj. 4.92959 iterations 26
Cbc0038I Pass  18: suminf.    4.18865 (25) obj. 4.92959 iterations 25
Cbc0038I Pass  19: suminf.    3.78112 (23) obj. 4.92959 iterations 27
Cbc0038I Pass  20: suminf.    4.92959 (14) obj. 4.92959 iterations 23
Cbc0038I Pass  21: suminf.    4.29641 (28) obj. 4.29641 iterations 21
Cbc0038I Pass  22: suminf.    4.92959 (11) obj. 4.92959 iterations 36
Cbc0038I Pass  23: suminf.    4.50000 (13) obj. 4.5 iterations 23
Cbc0038I Pass  24: suminf.    4.50710 (14) obj. 4.92959 iterations 40
Cbc0038I Pass  25: suminf.    3.27879 (17) obj. 4.92959 iterations 27
Cbc0038I Pass  26: suminf.    3.07041 (17) obj. 4.92959 iterations 12
Cbc0038I Pass  27: suminf.    4.28170 (15) obj. 4.92959 iterations 24
Cbc0038I Pass  28: suminf.    3.58918 (18) obj. 4.92959 iterations 17
Cbc0038I Pass  29: suminf.    3.49763 (14) obj. 4.92959 iterations 11
Cbc0038I Pass  30: suminf.    4.92959 (14) obj. 4.92959 iterations 27
Cbc0038I Pass  31: suminf.    4.29641 (28) obj. 4.29641 iterations 22
Cbc0038I Pass  32: suminf.    4.82888 (19) obj. 4.92959 iterations 30
Cbc0038I Pass  33: suminf.    3.78434 (20) obj. 4.92959 iterations 19
Cbc0038I Pass  34: suminf.    4.91720 (21) obj. 4.92959 iterations 32
Cbc0038I No solution found this major pass
Cbc0038I Before mini branch and bound, 2 integers at bound fixed and 0 continuous
Cbc0038I Full problem 138 rows 40 columns, reduced to 135 rows 38 columns - 2 fixed gives 75, 24 - ok now
Cbc0038I Mini branch and bound did not improve solution (0.06 seconds)
Cbc0038I After 0.06 seconds - Feasibility pump exiting with objective of 6 - took 0.05 seconds
Cbc0012I Integer solution of 6 found by feasibility pump after 0 iterations and 0 nodes (0.06 seconds)
Cbc0038I Full problem 138 rows 40 columns, reduced to 111 rows 26 columns
Cbc0031I 7 added rows had average density of 40
Cbc0013I At root node, 7 cuts changed objective from 4.294964 to 4.5590916 in 100 passes
Cbc0014I Cut generator 0 (Probing) - 0 row cuts average 0.0 elements, 0 column cuts (0 active)  in 0.015 seconds - new frequency is -100
Cbc0014I Cut generator 1 (Gomory) - 439 row cuts average 40.0 elements, 0 column cuts (0 active)  in 0.015 seconds - new frequency is 1
Cbc0014I Cut generator 2 (Knapsack) - 0 row cuts average 0.0 elements, 0 column cuts (0 active)  in 0.009 seconds - new frequency is -100
Cbc0014I Cut generator 3 (Clique) - 0 row cuts average 0.0 elements, 0 column cuts (0 active)  in 0.003 seconds - new frequency is -100
Cbc0014I Cut generator 4 (MixedIntegerRounding2) - 3 row cuts average 39.0 elements, 0 column cuts (0 active)  in 0.010 seconds - new frequency is -100
Cbc0014I Cut generator 5 (FlowCover) - 0 row cuts average 0.0 elements, 0 column cuts (0 active)  in 0.001 seconds - new frequency is -100
Cbc0010I After 0 nodes, 1 on tree, 6 best solution, best possible 4.5590916 (0.16 seconds)
Cbc0001I Search completed - best objective 6, took 3806 iterations and 10 nodes (0.21 seconds)
Cbc0032I Strong branching done 250 times (4694 iterations), fathomed 3 nodes and fixed 1 variables
Cbc0035I Maximum depth 4, 22 variables fixed on reduced cost
Cuts at root node changed objective from 4.29496 to 4.55909
Probing was tried 100 times and created 0 cuts of which 0 were active after adding rounds of cuts (0.015 seconds)
Gomory was tried 131 times and created 523 cuts of which 0 were active after adding rounds of cuts (0.019 seconds)
Knapsack was tried 100 times and created 0 cuts of which 0 were active after adding rounds of cuts (0.009 seconds)
Clique was tried 100 times and created 0 cuts of which 0 were active after adding rounds of cuts (0.003 seconds)
MixedIntegerRounding2 was tried 100 times and created 3 cuts of which 0 were active after adding rounds of cuts (0.010 seconds)
FlowCover was tried 100 times and created 0 cuts of which 0 were active after adding rounds of cuts (0.001 seconds)
TwoMirCuts was tried 1 times and created 0 cuts of which 0 were active after adding rounds of cuts (0.000 seconds)
ZeroHalf was tried 1 times and created 0 cuts of which 0 were active after adding rounds of cuts (0.000 seconds)

Result - Optimal solution found

Objective value:                6.00000000
Enumerated nodes:               10
Total iterations:               3806
Time (CPU seconds):             0.21
Time (Wallclock seconds):       0.22

Total time (CPU seconds):       0.21   (Wallclock seconds):       0.22

